NAME : 2OPTtest
COMMENT : Bonn VLSI data set with 131 points
COMMENT : Uni Bonn, Research Institute for Discrete Math
COMMENT : Contributed by Andre Rohe
TYPE : TSP
DIMENSION : 30
EDGE_WEIGHT_TYPE : EUC_2D
NODE_COORD_SECTION
1 0 13
2 0 26
3 0 27
4 0 39
5 2 0
6 5 13
7 5 19
8 5 25
9 5 31
10 5 37
11 5 43
12 5 8
13 8 0
14 9 10
15 9 20
16 12 4
EOF
